sat

(objectives
 ((bvadd PriceProv12 (bvadd PriceProv11 (bvadd PriceProv10 (bvadd PriceProv9 (bvadd PriceProv8 (bvadd PriceProv7 (bvadd PriceProv6 (bvadd PriceProv5 (bvadd PriceProv4 (bvadd PriceProv3 (bvadd PriceProv1 PriceProv2))))))))))) (_ bv1884 32))
)
;; statistics
(
 :cnf-variables 2195
 :cnf-literals 8088
 :cnf-clauses 3523
 :sat-checks 15
 :sat-restarts 117
 :sat-decisions 699567
 :sat-random-decisions 394
 :sat-propagations 2037330629
 :sat-theory-propagations 0
 :sat-watched-clauses-visited 3717206314
 :sat-binary-watched-clauses-visited 1504573196
 :sat-conflicts 470369
 :sat-theory-conflicts 0
 :theory-necessary-interface-equalities 0
 :theory-extra-interface-equalities 0
 :euf-total-calls 713346
 :euf-complete-calls 16
 :euf-conflicts 0
 :euf-implications 0
 :euf-explanations 0
 :euf-egraph-nodes-created 76918
 :euf-egraph-nodes-deleted 72050
 :euf-num-asserted-equalities 23605640
 :euf-num-asserted-inequalities 13248650
 :euf-num-merges 53712664
 :euf-num-merges-undone 53712664
 :euf-num-atoms-retold 17152
 :la-total-calls 713346
 :la-complete-calls 16
 :la-conflicts 0
 :la-implications 0
 :la-explanations 0
 :la-num-equalities-split 0
 :la-num-tableau-rows 0
 :la-num-tableau-variables 0
 :bv-total-calls 713346
 :bv-complete-calls 16
 :bv-conflicts 0
 :bv-implications 0
 :bv-explanations 0
 :fp-total-calls 713346
 :fp-complete-calls 16
 :fp-conflicts 0
 :fp-implications 0
 :fp-explanations 0
 :arr-total-calls 713346
 :arr-complete-calls 16
 :arr-conflicts 0
 :arr-implications 0
 :arr-explanations 0
 :arr-write-lemmas-added 0
 :arr-row-lemmas-added 0
 :arr-ext-lemmas-added 0
 :arr-const-lemmas-added 0
 :na-total-calls 713346
 :na-complete-calls 16
 :na-conflicts 0
 :na-implications 0
 :na-explanations 0
 :na-num_nonlinear_multiplications 0
 :na-num_axiom_checks 0
 :na-num_zero_lemmas 0
 :na-num_sign_lemmas 0
 :na-num_neutral_lemmas 0
 :na-num_proportionality_lemmas 0
 :na-num_bound_lemmas 0
 :na-num_tangent_lemmas 0
 :na-num_monotonicity_lemmas 0
 :na-num_sat_checks 0
 :na-axiom_check_time 0.000
 :na-sat_check_time 0.000
 :time-seconds 445.845
 :memory-mb 283.662
)
